name = gotic_20_1_100_ex1;
nbCMP= 1;
speed = 50;
tics_data = {
 < TIC_1 84 84 480 1080 {1 } >
 < TIC_2 82 40 480 1080 {1 } >
 < TIC_3 88 28 480 1080 {1 } >
 < TIC_4 76 58 480 1080 {1 } >
 < TIC_5 70 13 480 1080 {1 } >
 < TIC_6 9 42 480 1080 {1 } >
 < TIC_7 17 74 480 1080 {1 } >
 < TIC_8 78 92 480 1080 {1 } >
 < TIC_9 72 91 480 1080 {1 } >
 < TIC_10 45 37 480 1080 {1 } >
 < TIC_11 7 98 480 1080 {1 } >
 < TIC_12 62 75 480 1080 {1 } >
 < TIC_13 40 44 480 1080 {1 } >
 < TIC_14 38 51 480 1080 {1 } >
 < TIC_15 92 48 480 1080 {1 } >
 < TIC_16 82 7 480 1080 {1 } >
 < TIC_17 3 91 480 1080 {1 } >
 < TIC_18 28 82 480 1080 {1 } >
 < TIC_19 54 80 480 1080 {1 } >
 < TIC_20 60 90 480 1080 {1 } >
};
jobs_data = {
 < JOB_1 66 78 720 869 1 30 1 100000>
 < JOB_2 48 79 540 659 1 60 1 100000>
 < JOB_3 1 79 780 929 1 30 1 100000>
 < JOB_4 82 34 600 659 1 30 1 100000>
 < JOB_5 91 58 540 719 1 30 1 100000>
 < JOB_6 40 1 720 869 1 30 1 100000>
 < JOB_7 29 41 780 959 1 30 1 100000>
 < JOB_8 79 90 540 629 1 30 1 100000>
 < JOB_9 31 0 720 809 1 60 1 100000>
 < JOB_10 72 14 570 749 1 30 1 100000>
 < JOB_11 70 58 750 839 1 60 1 100000>
 < JOB_12 98 91 630 809 1 60 1 100000>
 < JOB_13 20 83 720 839 1 60 1 100000>
 < JOB_14 27 98 990 1049 1 30 1 100000>
 < JOB_15 33 9 660 749 1 30 1 100000>
 < JOB_16 3 33 810 959 1 60 1 100000>
 < JOB_17 76 56 810 959 1 60 1 100000>
 < JOB_18 79 48 540 629 1 30 1 100000>
 < JOB_19 41 98 0 1439 1 60 0 100000>
 < JOB_20 36 9 510 569 1 60 1 100000>
 < JOB_21 62 87 690 779 1 60 1 100000>
 < JOB_22 59 20 600 779 1 30 1 100000>
 < JOB_23 6 85 540 689 1 30 1 100000>
 < JOB_24 14 40 630 809 1 60 1 100000>
 < JOB_25 21 40 690 749 1 60 1 100000>
 < JOB_26 60 43 900 959 1 60 1 100000>
 < JOB_27 87 95 0 1439 1 30 0 100000>
 < JOB_28 66 20 870 929 1 30 1 100000>
 < JOB_29 16 85 570 749 1 30 1 100000>
 < JOB_30 95 46 510 659 1 60 1 100000>
 < JOB_31 17 4 810 899 1 30 1 100000>
 < JOB_32 49 9 540 689 1 60 1 100000>
 < JOB_33 46 96 630 689 1 60 1 100000>
 < JOB_34 7 69 540 689 1 60 1 100000>
 < JOB_35 6 43 480 599 1 60 1 100000>
 < JOB_36 1 48 690 779 1 60 1 100000>
 < JOB_37 38 73 660 779 1 60 1 100000>
 < JOB_38 57 83 840 899 1 60 1 100000>
 < JOB_39 2 91 480 659 1 60 1 100000>
 < JOB_40 90 7 630 689 1 30 1 100000>
 < JOB_41 58 65 570 689 1 30 1 100000>
 < JOB_42 73 49 480 599 1 60 1 100000>
 < JOB_43 62 17 540 719 1 30 1 100000>
 < JOB_44 56 29 780 959 1 30 1 100000>
 < JOB_45 45 74 570 629 1 30 1 100000>
 < JOB_46 35 70 810 869 1 30 1 100000>
 < JOB_47 5 85 0 1439 1 60 0 100000>
 < JOB_48 88 41 0 1439 1 30 0 100000>
 < JOB_49 56 41 570 689 1 60 1 100000>
 < JOB_50 94 15 0 1439 1 60 0 100000>
 < JOB_51 64 83 840 929 1 60 1 100000>
 < JOB_52 96 57 570 749 1 30 1 100000>
 < JOB_53 79 52 0 1439 1 30 0 100000>
 < JOB_54 18 81 480 539 1 30 1 100000>
 < JOB_55 63 99 870 1019 1 30 1 100000>
 < JOB_56 10 74 780 839 1 60 1 100000>
 < JOB_57 99 97 960 1019 1 60 1 100000>
 < JOB_58 13 73 510 569 1 60 1 100000>
 < JOB_59 49 47 510 569 1 60 1 100000>
 < JOB_60 15 58 0 1439 1 60 0 100000>
 < JOB_61 47 50 0 1439 1 30 0 100000>
 < JOB_62 99 74 810 869 1 60 1 100000>
 < JOB_63 5 76 0 1439 1 60 0 100000>
 < JOB_64 97 1 840 1019 1 30 1 100000>
 < JOB_65 38 52 600 779 1 30 1 100000>
 < JOB_66 73 97 630 779 1 30 1 100000>
 < JOB_67 49 25 570 689 1 30 1 100000>
 < JOB_68 98 76 480 599 1 60 1 100000>
 < JOB_69 20 86 540 659 1 30 1 100000>
 < JOB_70 5 26 630 749 1 30 1 100000>
 < JOB_71 31 34 630 719 1 60 1 100000>
 < JOB_72 25 73 0 1439 1 60 0 100000>
 < JOB_73 84 74 630 689 1 30 1 100000>
 < JOB_74 7 68 630 689 1 30 1 100000>
 < JOB_75 97 18 480 599 1 30 1 100000>
 < JOB_76 32 74 870 929 1 30 1 100000>
 < JOB_77 92 23 0 1439 1 60 0 100000>
 < JOB_78 96 67 510 629 1 30 1 100000>
 < JOB_79 87 3 750 809 1 60 1 100000>
 < JOB_80 22 29 630 779 1 30 1 100000>
 < JOB_81 95 70 720 779 1 60 1 100000>
 < JOB_82 30 43 510 659 1 60 1 100000>
 < JOB_83 4 54 540 719 1 30 1 100000>
 < JOB_84 91 22 750 929 1 60 1 100000>
 < JOB_85 51 47 780 899 1 60 1 100000>
 < JOB_86 77 4 0 1439 1 30 0 100000>
 < JOB_87 13 40 690 869 1 60 1 100000>
 < JOB_88 43 63 810 899 1 60 1 100000>
 < JOB_89 7 30 780 959 1 30 1 100000>
 < JOB_90 57 57 870 929 1 60 1 100000>
 < JOB_91 1 78 720 899 1 60 1 100000>
 < JOB_92 46 92 480 659 1 30 1 100000>
 < JOB_93 64 90 570 689 1 30 1 100000>
 < JOB_94 78 63 780 869 1 30 1 100000>
 < JOB_95 12 71 900 959 1 60 1 100000>
 < JOB_96 20 94 900 959 1 30 1 100000>
 < JOB_97 79 39 780 929 1 60 1 100000>
 < JOB_98 32 2 840 1019 1 60 1 100000>
 < JOB_99 6 78 630 689 1 30 1 100000>
 < JOB_100 77 32 600 719 1 30 1 100000>
};
